NAME: test1852
TYPE: TSP
DIMENSION: 11
EDGE_WEIGHT_TYPE: EUC_2D
NODE_COORD_SECTION
1 71.28381076306698 51.69745279314532
2 26.055179615670433 78.08062959362306
3 52.245249569357554 74.07151343952711
4 77.12619703731231 38.48037944206024
5 48.41690633263032 37.25447808672211
6 72.65215740500354 89.50767051579403
7 64.50753332750419 79.11497695331585
8 41.60418890628853 81.94224573455115
9 15.516183039128473 33.06192263747961
10 33.93174081568273 75.25008643929112
11 42.37697335853154 6.482673483403623
EOF
